100 4950
1 2 5
1 3 3
1 4 3
1 5 2
1 6 2
1 7 5
1 8 5
1 9 2
1 10 3
1 11 4
1 12 3
1 13 2
1 14 4
1 15 1
1 16 2
1 17 1
1 18 3
1 19 1
1 20 5
1 21 2
1 22 1
1 23 2
1 24 1
1 25 3
1 26 5
1 27 2
1 28 5
1 29 5
1 30 5
1 31 5
1 32 3
1 33 3
1 34 3
1 35 1
1 36 4
1 37 5
1 38 4
1 39 5
1 40 2
1 41 1
1 42 3
1 43 2
1 44 3
1 45 5
1 46 1
1 47 3
1 48 5
1 49 3
1 50 3
1 51 1
1 52 4
1 53 1
1 54 2
1 55 3
1 56 2
1 57 3
1 58 3
1 59 4
1 60 5
1 61 2
1 62 1
1 63 4
1 64 4
1 65 2
1 66 1
1 67 3
1 68 3
1 69 3
1 70 2
1 71 3
1 72 2
1 73 4
1 74 3
1 75 4
1 76 4
1 77 5
1 78 1
1 79 5
1 80 3
1 81 4
1 82 3
1 83 1
1 84 2
1 85 5
1 86 4
1 87 5
1 88 3
1 89 2
1 90 5
1 91 1
1 92 3
1 93 1
1 94 3
1 95 5
1 96 3
1 97 2
1 98 3
1 99 4
1 100 3
2 3 1
2 4 4
2 5 4
2 6 3
2 7 4
2 8 3
2 9 1
2 10 2
2 11 3
2 12 3
2 13 1
2 14 5
2 15 4
2 16 4
2 17 4
2 18 2
2 19 1
2 20 1
2 21 5
2 22 4
2 23 1
2 24 3
2 25 4
2 26 2
2 27 2
2 28 2
2 29 5
2 30 3
2 31 2
2 32 4
2 33 5
2 34 2
2 35 2
2 36 4
2 37 3
2 38 3
2 39 4
2 40 4
2 41 5
2 42 4
2 43 5
2 44 1
2 45 2
2 46 5
2 47 4
2 48 3
2 49 5
2 50 5
2 51 4
2 52 4
2 53 5
2 54 3
2 55 1
2 56 5
2 57 5
2 58 1
2 59 1
2 60 4
2 61 4
2 62 2
2 63 1
2 64 2
2 65 5
2 66 1
2 67 2
2 68 1
2 69 3
2 70 4
2 71 5
2 72 5
2 73 2
2 74 4
2 75 4
2 76 1
2 77 1
2 78 4
2 79 5
2 80 1
2 81 4
2 82 2
2 83 3
2 84 5
2 85 1
2 86 1
2 87 1
2 88 3
2 89 4
2 90 2
2 91 1
2 92 4
2 93 1
2 94 1
2 95 2
2 96 2
2 97 4
2 98 3
2 99 4
2 100 1
3 4 4
3 5 4
3 6 4
3 7 4
3 8 2
3 9 2
3 10 1
3 11 1
3 12 5
3 13 2
3 14 2
3 15 3
3 16 5
3 17 5
3 18 2
3 19 2
3 20 4
3 21 2
3 22 5
3 23 2
3 24 3
3 25 4
3 26 1
3 27 2
3 28 4
3 29 1
3 30 2
3 31 3
3 32 5
3 33 5
3 34 2
3 35 3
3 36 2
3 37 1
3 38 3
3 39 3
3 40 2
3 41 4
3 42 4
3 43 3
3 44 2
3 45 3
3 46 5
3 47 4
3 48 2
3 49 3
3 50 3
3 51 5
3 52 5
3 53 2
3 54 1
3 55 3
3 56 5
3 57 2
3 58 5
3 59 3
3 60 4
3 61 4
3 62 3
3 63 2
3 64 3
3 65 3
3 66 3
3 67 4
3 68 1
3 69 3
3 70 4
3 71 4
3 72 4
3 73 5
3 74 2
3 75 2
3 76 2
3 77 3
3 78 3
3 79 5
3 80 2
3 81 3
3 82 5
3 83 3
3 84 4
3 85 5
3 86 1
3 87 3
3 88 5
3 89 5
3 90 5
3 91 5
3 92 5
3 93 3
3 94 3
3 95 1
3 96 5
3 97 1
3 98 4
3 99 1
3 100 5
4 5 2
4 6 2
4 7 2
4 8 5
4 9 2
4 10 3
4 11 4
4 12 1
4 13 4
4 14 5
4 15 5
4 16 1
4 17 3
4 18 1
4 19 1
4 20 5
4 21 2
4 22 1
4 23 1
4 24 1
4 25 4
4 26 2
4 27 3
4 28 4
4 29 3
4 30 5
4 31 5
4 32 3
4 33 2
4 34 4
4 35 2
4 36 2
4 37 4
4 38 5
4 39 4
4 40 3
4 41 4
4 42 4
4 43 1
4 44 1
4 45 5
4 46 3
4 47 3
4 48 5
4 49 2
4 50 1
4 51 3
4 52 1
4 53 1
4 54 2
4 55 1
4 56 2
4 57 2
4 58 2
4 59 3
4 60 1
4 61 1
4 62 5
4 63 5
4 64 4
4 65 2
4 66 5
4 67 5
4 68 2
4 69 4
4 70 5
4 71 4
4 72 2
4 73 2
4 74 1
4 75 3
4 76 1
4 77 3
4 78 5
4 79 3
4 80 4
4 81 2
4 82 5
4 83 4
4 84 4
4 85 1
4 86 2
4 87 3
4 88 1
4 89 2
4 90 5
4 91 3
4 92 5
4 93 1
4 94 1
4 95 2
4 96 4
4 97 3
4 98 4
4 99 4
4 100 2
5 6 5
5 7 4
5 8 1
5 9 4
5 10 4
5 11 4
5 12 1
5 13 1
5 14 3
5 15 2
5 16 5
5 17 4
5 18 5
5 19 1
5 20 4
5 21 1
5 22 4
5 23 3
5 24 5
5 25 1
5 26 5
5 27 4
5 28 4
5 29 5
5 30 4
5 31 4
5 32 3
5 33 2
5 34 5
5 35 4
5 36 2
5 37 2
5 38 4
5 39 5
5 40 4
5 41 3
5 42 5
5 43 4
5 44 3
5 45 3
5 46 4
5 47 1
5 48 2
5 49 5
5 50 2
5 51 3
5 52 2
5 53 2
5 54 5
5 55 1
5 56 3
5 57 1
5 58 3
5 59 2
5 60 2
5 61 4
5 62 3
5 63 1
5 64 5
5 65 3
5 66 4
5 67 3
5 68 4
5 69 4
5 70 3
5 71 5
5 72 2
5 73 4
5 74 2
5 75 4
5 76 4
5 77 1
5 78 3
5 79 3
5 80 3
5 81 3
5 82 3
5 83 1
5 84 4
5 85 2
5 86 3
5 87 1
5 88 1
5 89 1
5 90 4
5 91 3
5 92 3
5 93 2
5 94 4
5 95 4
5 96 3
5 97 3
5 98 3
5 99 3
5 100 3
6 7 5
6 8 4
6 9 4
6 10 2
6 11 2
6 12 2
6 13 2
6 14 1
6 15 3
6 16 4
6 17 5
6 18 3
6 19 3
6 20 3
6 21 4
6 22 5
6 23 2
6 24 1
6 25 3
6 26 5
6 27 5
6 28 3
6 29 2
6 30 1
6 31 3
6 32 5
6 33 1
6 34 3
6 35 3
6 36 5
6 37 5
6 38 1
6 39 1
6 40 3
6 41 1
6 42 3
6 43 2
6 44 2
6 45 1
6 46 4
6 47 5
6 48 5
6 49 3
6 50 4
6 51 2
6 52 4
6 53 5
6 54 5
6 55 3
6 56 5
6 57 2
6 58 1
6 59 3
6 60 4
6 61 3
6 62 5
6 63 4
6 64 3
6 65 2
6 66 5
6 67 1
6 68 4
6 69 4
6 70 1
6 71 1
6 72 3
6 73 3
6 74 4
6 75 3
6 76 2
6 77 5
6 78 2
6 79 1
6 80 5
6 81 5
6 82 1
6 83 1
6 84 5
6 85 5
6 86 5
6 87 5
6 88 2
6 89 3
6 90 4
6 91 3
6 92 4
6 93 5
6 94 3
6 95 2
6 96 3
6 97 1
6 98 1
6 99 4
6 100 2
7 8 5
7 9 2
7 10 4
7 11 5
7 12 2
7 13 2
7 14 4
7 15 5
7 16 2
7 17 2
7 18 2
7 19 4
7 20 4
7 21 2
7 22 1
7 23 5
7 24 5
7 25 2
7 26 5
7 27 3
7 28 5
7 29 1
7 30 1
7 31 2
7 32 4
7 33 3
7 34 1
7 35 5
7 36 5
7 37 2
7 38 2
7 39 5
7 40 1
7 41 1
7 42 2
7 43 1
7 44 1
7 45 4
7 46 1
7 47 1
7 48 1
7 49 3
7 50 4
7 51 1
7 52 4
7 53 5
7 54 4
7 55 3
7 56 5
7 57 2
7 58 3
7 59 4
7 60 2
7 61 4
7 62 4
7 63 1
7 64 5
7 65 4
7 66 2
7 67 5
7 68 3
7 69 3
7 70 1
7 71 3
7 72 4
7 73 5
7 74 3
7 75 1
7 76 1
7 77 5
7 78 5
7 79 3
7 80 2
7 81 4
7 82 5
7 83 5
7 84 3
7 85 5
7 86 3
7 87 5
7 88 1
7 89 3
7 90 5
7 91 2
7 92 3
7 93 2
7 94 3
7 95 2
7 96 5
7 97 5
7 98 3
7 99 4
7 100 5
8 9 4
8 10 3
8 11 4
8 12 4
8 13 2
8 14 2
8 15 4
8 16 5
8 17 3
8 18 2
8 19 1
8 20 1
8 21 2
8 22 5
8 23 3
8 24 4
8 25 5
8 26 5
8 27 1
8 28 5
8 29 4
8 30 4
8 31 5
8 32 5
8 33 5
8 34 4
8 35 5
8 36 1
8 37 2
8 38 2
8 39 2
8 40 4
8 41 2
8 42 2
8 43 3
8 44 2
8 45 3
8 46 3
8 47 5
8 48 5
8 49 1
8 50 1
8 51 1
8 52 3
8 53 4
8 54 2
8 55 4
8 56 1
8 57 5
8 58 3
8 59 1
8 60 3
8 61 5
8 62 1
8 63 5
8 64 1
8 65 4
8 66 5
8 67 1
8 68 3
8 69 5
8 70 3
8 71 4
8 72 1
8 73 1
8 74 5
8 75 1
8 76 3
8 77 1
8 78 4
8 79 5
8 80 1
8 81 5
8 82 4
8 83 3
8 84 5
8 85 3
8 86 2
8 87 4
8 88 2
8 89 4
8 90 3
8 91 2
8 92 4
8 93 5
8 94 3
8 95 1
8 96 5
8 97 4
8 98 2
8 99 3
8 100 4
9 10 2
9 11 2
9 12 5
9 13 2
9 14 2
9 15 4
9 16 3
9 17 1
9 18 1
9 19 1
9 20 5
9 21 4
9 22 5
9 23 1
9 24 5
9 25 4
9 26 2
9 27 4
9 28 1
9 29 1
9 30 2
9 31 1
9 32 2
9 33 1
9 34 4
9 35 1
9 36 2
9 37 4
9 38 1
9 39 1
9 40 2
9 41 3
9 42 4
9 43 4
9 44 2
9 45 1
9 46 1
9 47 2
9 48 5
9 49 4
9 50 1
9 51 1
9 52 3
9 53 4
9 54 1
9 55 2
9 56 3
9 57 5
9 58 1
9 59 3
9 60 5
9 61 1
9 62 2
9 63 2
9 64 1
9 65 1
9 66 3
9 67 5
9 68 2
9 69 5
9 70 2
9 71 5
9 72 1
9 73 2
9 74 3
9 75 2
9 76 3
9 77 5
9 78 2
9 79 3
9 80 3
9 81 2
9 82 5
9 83 1
9 84 3
9 85 3
9 86 5
9 87 5
9 88 3
9 89 5
9 90 4
9 91 3
9 92 5
9 93 2
9 94 5
9 95 2
9 96 3
9 97 4
9 98 5
9 99 1
9 100 3
10 11 4
10 12 2
10 13 5
10 14 1
10 15 4
10 16 3
10 17 2
10 18 5
10 19 3
10 20 5
10 21 2
10 22 2
10 23 1
10 24 4
10 25 5
10 26 2
10 27 4
10 28 1
10 29 4
10 30 4
10 31 5
10 32 1
10 33 1
10 34 1
10 35 3
10 36 2
10 37 2
10 38 3
10 39 2
10 40 2
10 41 3
10 42 3
10 43 1
10 44 5
10 45 4
10 46 2
10 47 4
10 48 4
10 49 1
10 50 1
10 51 3
10 52 4
10 53 5
10 54 2
10 55 4
10 56 2
10 57 5
10 58 5
10 59 3
10 60 2
10 61 5
10 62 1
10 63 3
10 64 5
10 65 4
10 66 5
10 67 3
10 68 1
10 69 2
10 70 2
10 71 1
10 72 5
10 73 3
10 74 5
10 75 5
10 76 4
10 77 4
10 78 4
10 79 1
10 80 4
10 81 4
10 82 5
10 83 1
10 84 4
10 85 2
10 86 3
10 87 4
10 88 1
10 89 5
10 90 5
10 91 4
10 92 4
10 93 2
10 94 3
10 95 3
10 96 4
10 97 1
10 98 4
10 99 2
10 100 5
11 12 5
11 13 2
11 14 2
11 15 3
11 16 2
11 17 3
11 18 2
11 19 4
11 20 2
11 21 1
11 22 4
11 23 2
11 24 3
11 25 2
11 26 1
11 27 1
11 28 1
11 29 5
11 30 5
11 31 5
11 32 2
11 33 5
11 34 3
11 35 1
11 36 5
11 37 5
11 38 4
11 39 5
11 40 1
11 41 4
11 42 2
11 43 2
11 44 2
11 45 1
11 46 4
11 47 4
11 48 3
11 49 1
11 50 2
11 51 2
11 52 5
11 53 1
11 54 3
11 55 4
11 56 3
11 57 4
11 58 1
11 59 1
11 60 4
11 61 5
11 62 1
11 63 4
11 64 1
11 65 5
11 66 2
11 67 1
11 68 2
11 69 2
11 70 4
11 71 2
11 72 2
11 73 5
11 74 4
11 75 2
11 76 3
11 77 3
11 78 1
11 79 5
11 80 3
11 81 3
11 82 4
11 83 2
11 84 5
11 85 4
11 86 3
11 87 4
11 88 3
11 89 1
11 90 4
11 91 3
11 92 1
11 93 2
11 94 1
11 95 5
11 96 3
11 97 4
11 98 5
11 99 2
11 100 5
12 13 1
12 14 4
12 15 1
12 16 1
12 17 3
12 18 3
12 19 2
12 20 4
12 21 1
12 22 3
12 23 5
12 24 3
12 25 2
12 26 5
12 27 2
12 28 3
12 29 4
12 30 5
12 31 1
12 32 2
12 33 3
12 34 3
12 35 5
12 36 5
12 37 1
12 38 5
12 39 2
12 40 1
12 41 3
12 42 5
12 43 5
12 44 4
12 45 3
12 46 5
12 47 2
12 48 1
12 49 5
12 50 4
12 51 4
12 52 3
12 53 3
12 54 3
12 55 5
12 56 2
12 57 4
12 58 2
12 59 2
12 60 2
12 61 1
12 62 1
12 63 2
12 64 5
12 65 3
12 66 3
12 67 4
12 68 5
12 69 4
12 70 5
12 71 4
12 72 4
12 73 2
12 74 3
12 75 4
12 76 5
12 77 1
12 78 3
12 79 1
12 80 2
12 81 3
12 82 5
12 83 4
12 84 4
12 85 3
12 86 1
12 87 1
12 88 4
12 89 1
12 90 3
12 91 4
12 92 2
12 93 1
12 94 4
12 95 3
12 96 4
12 97 5
12 98 1
12 99 2
12 100 2
13 14 4
13 15 1
13 16 4
13 17 3
13 18 4
13 19 3
13 20 4
13 21 5
13 22 2
13 23 5
13 24 3
13 25 1
13 26 3
13 27 4
13 28 3
13 29 4
13 30 4
13 31 4
13 32 1
13 33 5
13 34 4
13 35 4
13 36 3
13 37 4
13 38 3
13 39 4
13 40 1
13 41 5
13 42 3
13 43 4
13 44 5
13 45 3
13 46 5
13 47 3
13 48 2
13 49 3
13 50 5
13 51 2
13 52 1
13 53 4
13 54 4
13 55 5
13 56 2
13 57 3
13 58 1
13 59 1
13 60 1
13 61 1
13 62 2
13 63 3
13 64 4
13 65 3
13 66 4
13 67 5
13 68 3
13 69 5
13 70 4
13 71 1
13 72 1
13 73 4
13 74 1
13 75 5
13 76 4
13 77 3
13 78 1
13 79 4
13 80 2
13 81 3
13 82 2
13 83 1
13 84 3
13 85 3
13 86 3
13 87 3
13 88 2
13 89 1
13 90 2
13 91 5
13 92 5
13 93 5
13 94 5
13 95 5
13 96 5
13 97 2
13 98 1
13 99 2
13 100 4
14 15 5
14 16 3
14 17 3
14 18 3
14 19 4
14 20 2
14 21 1
14 22 4
14 23 4
14 24 3
14 25 4
14 26 2
14 27 3
14 28 3
14 29 2
14 30 5
14 31 2
14 32 1
14 33 1
14 34 2
14 35 3
14 36 4
14 37 1
14 38 1
14 39 4
14 40 4
14 41 4
14 42 4
14 43 4
14 44 5
14 45 1
14 46 4
14 47 5
14 48 3
14 49 3
14 50 4
14 51 4
14 52 4
14 53 2
14 54 2
14 55 2
14 56 3
14 57 3
14 58 5
14 59 1
14 60 2
14 61 2
14 62 2
14 63 1
14 64 3
14 65 4
14 66 4
14 67 3
14 68 3
14 69 2
14 70 2
14 71 1
14 72 4
14 73 1
14 74 5
14 75 4
14 76 1
14 77 4
14 78 1
14 79 5
14 80 1
14 81 1
14 82 2
14 83 3
14 84 5
14 85 4
14 86 2
14 87 1
14 88 4
14 89 3
14 90 3
14 91 3
14 92 1
14 93 5
14 94 2
14 95 1
14 96 3
14 97 4
14 98 2
14 99 2
14 100 4
15 16 1
15 17 4
15 18 5
15 19 2
15 20 3
15 21 5
15 22 3
15 23 5
15 24 4
15 25 2
15 26 3
15 27 5
15 28 3
15 29 4
15 30 4
15 31 1
15 32 3
15 33 4
15 34 3
15 35 1
15 36 3
15 37 5
15 38 1
15 39 4
15 40 1
15 41 3
15 42 3
15 43 4
15 44 3
15 45 4
15 46 2
15 47 4
15 48 2
15 49 3
15 50 5
15 51 2
15 52 1
15 53 4
15 54 5
15 55 3
15 56 2
15 57 5
15 58 3
15 59 2
15 60 2
15 61 5
15 62 1
15 63 2
15 64 1
15 65 4
15 66 2
15 67 1
15 68 5
15 69 5
15 70 5
15 71 2
15 72 5
15 73 4
15 74 4
15 75 4
15 76 4
15 77 5
15 78 5
15 79 3
15 80 3
15 81 2
15 82 3
15 83 3
15 84 2
15 85 3
15 86 3
15 87 5
15 88 3
15 89 2
15 90 4
15 91 1
15 92 4
15 93 3
15 94 1
15 95 4
15 96 3
15 97 5
15 98 2
15 99 5
15 100 4
16 17 5
16 18 2
16 19 1
16 20 5
16 21 4
16 22 1
16 23 3
16 24 3
16 25 3
16 26 2
16 27 4
16 28 1
16 29 3
16 30 5
16 31 4
16 32 2
16 33 4
16 34 1
16 35 2
16 36 4
16 37 1
16 38 1
16 39 1
16 40 3
16 41 3
16 42 2
16 43 1
16 44 2
16 45 2
16 46 1
16 47 3
16 48 5
16 49 2
16 50 4
16 51 5
16 52 1
16 53 2
16 54 3
16 55 3
16 56 4
16 57 5
16 58 1
16 59 1
16 60 5
16 61 3
16 62 5
16 63 5
16 64 2
16 65 1
16 66 1
16 67 4
16 68 2
16 69 3
16 70 4
16 71 2
16 72 1
16 73 5
16 74 3
16 75 5
16 76 1
16 77 4
16 78 5
16 79 4
16 80 2
16 81 4
16 82 5
16 83 3
16 84 1
16 85 5
16 86 1
16 87 1
16 88 2
16 89 4
16 90 4
16 91 4
16 92 1
16 93 3
16 94 4
16 95 2
16 96 1
16 97 1
16 98 1
16 99 5
16 100 5
17 18 3
17 19 5
17 20 3
17 21 4
17 22 1
17 23 1
17 24 4
17 25 4
17 26 3
17 27 3
17 28 1
17 29 5
17 30 3
17 31 1
17 32 2
17 33 5
17 34 1
17 35 5
17 36 3
17 37 4
17 38 3
17 39 2
17 40 2
17 41 5
17 42 1
17 43 1
17 44 4
17 45 3
17 46 2
17 47 1
17 48 2
17 49 1
17 50 5
17 51 1
17 52 2
17 53 4
17 54 4
17 55 3
17 56 3
17 57 4
17 58 2
17 59 5
17 60 3
17 61 5
17 62 3
17 63 5
17 64 2
17 65 1
17 66 1
17 67 5
17 68 2
17 69 4
17 70 2
17 71 1
17 72 4
17 73 5
17 74 3
17 75 4
17 76 1
17 77 4
17 78 1
17 79 1
17 80 2
17 81 2
17 82 2
17 83 4
17 84 2
17 85 5
17 86 1
17 87 2
17 88 4
17 89 4
17 90 3
17 91 3
17 92 5
17 93 3
17 94 5
17 95 3
17 96 4
17 97 5
17 98 5
17 99 4
17 100 1
18 19 5
18 20 3
18 21 3
18 22 2
18 23 5
18 24 1
18 25 3
18 26 2
18 27 5
18 28 2
18 29 4
18 30 5
18 31 3
18 32 5
18 33 4
18 34 5
18 35 1
18 36 5
18 37 1
18 38 1
18 39 1
18 40 1
18 41 4
18 42 2
18 43 3
18 44 3
18 45 3
18 46 4
18 47 3
18 48 2
18 49 5
18 50 4
18 51 4
18 52 4
18 53 1
18 54 2
18 55 3
18 56 3
18 57 1
18 58 1
18 59 5
18 60 3
18 61 1
18 62 1
18 63 5
18 64 5
18 65 5
18 66 2
18 67 3
18 68 2
18 69 1
18 70 5
18 71 5
18 72 3
18 73 2
18 74 2
18 75 5
18 76 1
18 77 5
18 78 5
18 79 4
18 80 1
18 81 4
18 82 4
18 83 3
18 84 1
18 85 3
18 86 5
18 87 1
18 88 3
18 89 5
18 90 3
18 91 1
18 92 3
18 93 2
18 94 4
18 95 5
18 96 4
18 97 4
18 98 2
18 99 5
18 100 2
19 20 2
19 21 4
19 22 4
19 23 4
19 24 4
19 25 5
19 26 4
19 27 2
19 28 3
19 29 3
19 30 3
19 31 3
19 32 4
19 33 2
19 34 5
19 35 2
19 36 5
19 37 5
19 38 1
19 39 3
19 40 3
19 41 1
19 42 1
19 43 3
19 44 5
19 45 4
19 46 1
19 47 3
19 48 3
19 49 2
19 50 4
19 51 1
19 52 1
19 53 3
19 54 2
19 55 1
19 56 3
19 57 1
19 58 3
19 59 3
19 60 1
19 61 3
19 62 2
19 63 4
19 64 4
19 65 1
19 66 2
19 67 4
19 68 1
19 69 3
19 70 5
19 71 3
19 72 4
19 73 1
19 74 2
19 75 4
19 76 2
19 77 1
19 78 4
19 79 1
19 80 5
19 81 4
19 82 2
19 83 3
19 84 4
19 85 4
19 86 1
19 87 5
19 88 4
19 89 4
19 90 1
19 91 2
19 92 5
19 93 4
19 94 2
19 95 2
19 96 4
19 97 1
19 98 1
19 99 4
19 100 1
20 21 2
20 22 1
20 23 3
20 24 5
20 25 2
20 26 3
20 27 3
20 28 2
20 29 5
20 30 4
20 31 2
20 32 4
20 33 3
20 34 5
20 35 1
20 36 5
20 37 5
20 38 3
20 39 2
20 40 4
20 41 2
20 42 5
20 43 5
20 44 4
20 45 5
20 46 3
20 47 1
20 48 4
20 49 2
20 50 4
20 51 5
20 52 5
20 53 2
20 54 3
20 55 2
20 56 2
20 57 5
20 58 4
20 59 4
20 60 4
20 61 2
20 62 5
20 63 4
20 64 2
20 65 2
20 66 2
20 67 5
20 68 1
20 69 4
20 70 2
20 71 4
20 72 5
20 73 1
20 74 1
20 75 2
20 76 4
20 77 1
20 78 4
20 79 2
20 80 2
20 81 1
20 82 1
20 83 1
20 84 3
20 85 2
20 86 2
20 87 5
20 88 2
20 89 1
20 90 1
20 91 5
20 92 3
20 93 2
20 94 5
20 95 2
20 96 5
20 97 4
20 98 1
20 99 2
20 100 4
21 22 4
21 23 4
21 24 5
21 25 1
21 26 1
21 27 1
21 28 5
21 29 3
21 30 4
21 31 3
21 32 2
21 33 2
21 34 3
21 35 4
21 36 5
21 37 2
21 38 1
21 39 1
21 40 2
21 41 1
21 42 4
21 43 4
21 44 4
21 45 2
21 46 2
21 47 2
21 48 1
21 49 5
21 50 1
21 51 3
21 52 4
21 53 5
21 54 1
21 55 4
21 56 2
21 57 2
21 58 4
21 59 2
21 60 5
21 61 4
21 62 1
21 63 5
21 64 1
21 65 2
21 66 1
21 67 2
21 68 4
21 69 5
21 70 4
21 71 5
21 72 5
21 73 3
21 74 3
21 75 1
21 76 2
21 77 2
21 78 4
21 79 5
21 80 3
21 81 5
21 82 5
21 83 5
21 84 5
21 85 3
21 86 4
21 87 4
21 88 3
21 89 1
21 90 5
21 91 4
21 92 2
21 93 4
21 94 2
21 95 5
21 96 3
21 97 3
21 98 4
21 99 3
21 100 4
22 23 2
22 24 4
22 25 3
22 26 5
22 27 3
22 28 1
22 29 2
22 30 2
22 31 3
22 32 5
22 33 5
22 34 3
22 35 5
22 36 5
22 37 3
22 38 2
22 39 2
22 40 4
22 41 4
22 42 3
22 43 2
22 44 5
22 45 2
22 46 2
22 47 3
22 48 4
22 49 5
22 50 5
22 51 5
22 52 3
22 53 5
22 54 2
22 55 1
22 56 4
22 57 3
22 58 2
22 59 3
22 60 1
22 61 1
22 62 5
22 63 5
22 64 4
22 65 5
22 66 1
22 67 4
22 68 4
22 69 4
22 70 1
22 71 3
22 72 1
22 73 4
22 74 5
22 75 4
22 76 4
22 77 5
22 78 2
22 79 4
22 80 3
22 81 5
22 82 4
22 83 2
22 84 4
22 85 1
22 86 5
22 87 2
22 88 2
22 89 1
22 90 2
22 91 2
22 92 4
22 93 3
22 94 1
22 95 4
22 96 5
22 97 3
22 98 4
22 99 2
22 100 2
23 24 2
23 25 4
23 26 2
23 27 3
23 28 5
23 29 5
23 30 5
23 31 4
23 32 4
23 33 2
23 34 4
23 35 4
23 36 2
23 37 1
23 38 5
23 39 2
23 40 1
23 41 3
23 42 2
23 43 5
23 44 3
23 45 5
23 46 4
23 47 3
23 48 5
23 49 3
23 50 1
23 51 1
23 52 1
23 53 4
23 54 5
23 55 3
23 56 5
23 57 3
23 58 4
23 59 1
23 60 3
23 61 3
23 62 5
23 63 1
23 64 3
23 65 3
23 66 5
23 67 2
23 68 5
23 69 5
23 70 2
23 71 5
23 72 3
23 73 1
23 74 4
23 75 1
23 76 3
23 77 4
23 78 1
23 79 2
23 80 4
23 81 1
23 82 5
23 83 5
23 84 3
23 85 4
23 86 2
23 87 5
23 88 3
23 89 4
23 90 3
23 91 4
23 92 1
23 93 3
23 94 4
23 95 2
23 96 1
23 97 1
23 98 5
23 99 1
23 100 1
24 25 2
24 26 5
24 27 2
24 28 4
24 29 4
24 30 4
24 31 1
24 32 1
24 33 5
24 34 2
24 35 2
24 36 5
24 37 2
24 38 4
24 39 2
24 40 1
24 41 3
24 42 4
24 43 4
24 44 2
24 45 3
24 46 4
24 47 2
24 48 5
24 49 2
24 50 2
24 51 5
24 52 3
24 53 2
24 54 4
24 55 3
24 56 5
24 57 3
24 58 3
24 59 2
24 60 4
24 61 4
24 62 4
24 63 2
24 64 4
24 65 4
24 66 2
24 67 2
24 68 4
24 69 3
24 70 4
24 71 1
24 72 4
24 73 1
24 74 1
24 75 5
24 76 3
24 77 1
24 78 1
24 79 1
24 80 3
24 81 5
24 82 4
24 83 3
24 84 2
24 85 4
24 86 3
24 87 2
24 88 2
24 89 4
24 90 3
24 91 4
24 92 3
24 93 2
24 94 3
24 95 3
24 96 5
24 97 4
24 98 5
24 99 1
24 100 5
25 26 5
25 27 4
25 28 4
25 29 2
25 30 3
25 31 4
25 32 5
25 33 4
25 34 5
25 35 5
25 36 2
25 37 1
25 38 4
25 39 4
25 40 4
25 41 5
25 42 2
25 43 2
25 44 3
25 45 3
25 46 2
25 47 5
25 48 2
25 49 4
25 50 3
25 51 5
25 52 5
25 53 4
25 54 2
25 55 3
25 56 2
25 57 1
25 58 3
25 59 4
25 60 5
25 61 3
25 62 2
25 63 4
25 64 4
25 65 2
25 66 2
25 67 1
25 68 1
25 69 5
25 70 3
25 71 1
25 72 1
25 73 2
25 74 5
25 75 5
25 76 1
25 77 3
25 78 1
25 79 1
25 80 2
25 81 2
25 82 3
25 83 5
25 84 2
25 85 5
25 86 2
25 87 2
25 88 5
25 89 2
25 90 1
25 91 5
25 92 1
25 93 2
25 94 3
25 95 3
25 96 4
25 97 3
25 98 2
25 99 3
25 100 1
26 27 3
26 28 4
26 29 3
26 30 5
26 31 4
26 32 5
26 33 4
26 34 2
26 35 3
26 36 5
26 37 1
26 38 3
26 39 2
26 40 5
26 41 5
26 42 2
26 43 3
26 44 3
26 45 4
26 46 4
26 47 3
26 48 1
26 49 1
26 50 4
26 51 2
26 52 2
26 53 5
26 54 1
26 55 2
26 56 4
26 57 4
26 58 2
26 59 3
26 60 5
26 61 4
26 62 3
26 63 5
26 64 2
26 65 5
26 66 1
26 67 2
26 68 2
26 69 3
26 70 3
26 71 2
26 72 1
26 73 4
26 74 1
26 75 2
26 76 5
26 77 1
26 78 5
26 79 4
26 80 1
26 81 3
26 82 3
26 83 5
26 84 2
26 85 4
26 86 2
26 87 2
26 88 5
26 89 4
26 90 1
26 91 3
26 92 1
26 93 2
26 94 4
26 95 2
26 96 2
26 97 5
26 98 4
26 99 1
26 100 4
27 28 2
27 29 2
27 30 5
27 31 4
27 32 1
27 33 2
27 34 2
27 35 5
27 36 5
27 37 3
27 38 3
27 39 2
27 40 2
27 41 1
27 42 3
27 43 3
27 44 3
27 45 5
27 46 1
27 47 3
27 48 2
27 49 2
27 50 5
27 51 4
27 52 5
27 53 3
27 54 2
27 55 3
27 56 3
27 57 1
27 58 3
27 59 5
27 60 1
27 61 2
27 62 1
27 63 5
27 64 2
27 65 5
27 66 4
27 67 5
27 68 4
27 69 1
27 70 1
27 71 5
27 72 2
27 73 5
27 74 1
27 75 1
27 76 4
27 77 3
27 78 2
27 79 3
27 80 4
27 81 4
27 82 3
27 83 4
27 84 1
27 85 5
27 86 3
27 87 4
27 88 2
27 89 2
27 90 4
27 91 3
27 92 2
27 93 1
27 94 5
27 95 3
27 96 5
27 97 3
27 98 4
27 99 2
27 100 4
28 29 2
28 30 2
28 31 1
28 32 4
28 33 2
28 34 5
28 35 5
28 36 3
28 37 2
28 38 5
28 39 1
28 40 1
28 41 5
28 42 2
28 43 3
28 44 2
28 45 4
28 46 3
28 47 3
28 48 3
28 49 2
28 50 4
28 51 1
28 52 4
28 53 5
28 54 4
28 55 4
28 56 1
28 57 5
28 58 5
28 59 1
28 60 3
28 61 1
28 62 4
28 63 4
28 64 5
28 65 3
28 66 5
28 67 3
28 68 5
28 69 1
28 70 5
28 71 5
28 72 1
28 73 2
28 74 3
28 75 4
28 76 1
28 77 3
28 78 2
28 79 4
28 80 3
28 81 2
28 82 2
28 83 3
28 84 4
28 85 4
28 86 3
28 87 3
28 88 1
28 89 4
28 90 2
28 91 3
28 92 3
28 93 3
28 94 4
28 95 4
28 96 3
28 97 5
28 98 1
28 99 3
28 100 5
29 30 3
29 31 1
29 32 4
29 33 2
29 34 3
29 35 2
29 36 5
29 37 1
29 38 5
29 39 5
29 40 5
29 41 1
29 42 1
29 43 2
29 44 3
29 45 5
29 46 1
29 47 4
29 48 3
29 49 1
29 50 5
29 51 1
29 52 1
29 53 4
29 54 3
29 55 4
29 56 5
29 57 4
29 58 4
29 59 1
29 60 5
29 61 5
29 62 3
29 63 1
29 64 5
29 65 4
29 66 1
29 67 4
29 68 5
29 69 3
29 70 3
29 71 5
29 72 2
29 73 5
29 74 4
29 75 5
29 76 4
29 77 3
29 78 4
29 79 1
29 80 1
29 81 2
29 82 2
29 83 3
29 84 2
29 85 1
29 86 3
29 87 3
29 88 2
29 89 2
29 90 3
29 91 5
29 92 5
29 93 5
29 94 3
29 95 4
29 96 5
29 97 3
29 98 5
29 99 1
29 100 3
30 31 5
30 32 1
30 33 1
30 34 4
30 35 4
30 36 3
30 37 4
30 38 4
30 39 5
30 40 5
30 41 1
30 42 5
30 43 4
30 44 5
30 45 1
30 46 5
30 47 2
30 48 3
30 49 1
30 50 2
30 51 4
30 52 3
30 53 2
30 54 3
30 55 1
30 56 2
30 57 2
30 58 2
30 59 4
30 60 1
30 61 5
30 62 2
30 63 4
30 64 2
30 65 3
30 66 5
30 67 4
30 68 4
30 69 2
30 70 1
30 71 3
30 72 4
30 73 1
30 74 1
30 75 4
30 76 3
30 77 1
30 78 4
30 79 4
30 80 4
30 81 4
30 82 5
30 83 4
30 84 5
30 85 1
30 86 4
30 87 5
30 88 5
30 89 4
30 90 5
30 91 4
30 92 4
30 93 2
30 94 1
30 95 3
30 96 3
30 97 2
30 98 3
30 99 1
30 100 5
31 32 2
31 33 5
31 34 1
31 35 1
31 36 2
31 37 1
31 38 5
31 39 4
31 40 4
31 41 5
31 42 1
31 43 3
31 44 3
31 45 2
31 46 2
31 47 5
31 48 4
31 49 1
31 50 1
31 51 1
31 52 3
31 53 5
31 54 2
31 55 4
31 56 4
31 57 3
31 58 3
31 59 1
31 60 3
31 61 4
31 62 1
31 63 4
31 64 4
31 65 3
31 66 1
31 67 5
31 68 4
31 69 4
31 70 1
31 71 3
31 72 3
31 73 3
31 74 4
31 75 3
31 76 3
31 77 4
31 78 4
31 79 3
31 80 5
31 81 1
31 82 4
31 83 5
31 84 5
31 85 1
31 86 3
31 87 4
31 88 4
31 89 4
31 90 5
31 91 3
31 92 5
31 93 5
31 94 2
31 95 1
31 96 5
31 97 2
31 98 2
31 99 2
31 100 2
32 33 3
32 34 5
32 35 3
32 36 5
32 37 4
32 38 2
32 39 1
32 40 2
32 41 1
32 42 1
32 43 2
32 44 5
32 45 3
32 46 1
32 47 1
32 48 5
32 49 3
32 50 4
32 51 5
32 52 5
32 53 2
32 54 4
32 55 5
32 56 3
32 57 3
32 58 2
32 59 1
32 60 2
32 61 4
32 62 5
32 63 5
32 64 4
32 65 1
32 66 3
32 67 3
32 68 3
32 69 1
32 70 2
32 71 5
32 72 1
32 73 2
32 74 2
32 75 2
32 76 4
32 77 2
32 78 5
32 79 1
32 80 2
32 81 3
32 82 3
32 83 4
32 84 5
32 85 4
32 86 2
32 87 3
32 88 3
32 89 3
32 90 5
32 91 3
32 92 4
32 93 3
32 94 3
32 95 4
32 96 1
32 97 1
32 98 3
32 99 4
32 100 1
33 34 4
33 35 1
33 36 1
33 37 5
33 38 2
33 39 1
33 40 1
33 41 2
33 42 2
33 43 5
33 44 5
33 45 4
33 46 3
33 47 3
33 48 4
33 49 2
33 50 4
33 51 5
33 52 5
33 53 2
33 54 5
33 55 5
33 56 1
33 57 5
33 58 1
33 59 2
33 60 1
33 61 4
33 62 5
33 63 2
33 64 3
33 65 3
33 66 4
33 67 5
33 68 5
33 69 5
33 70 4
33 71 1
33 72 1
33 73 4
33 74 2
33 75 4
33 76 1
33 77 5
33 78 3
33 79 4
33 80 4
33 81 1
33 82 4
33 83 1
33 84 2
33 85 2
33 86 3
33 87 5
33 88 4
33 89 4
33 90 4
33 91 1
33 92 3
33 93 4
33 94 5
33 95 4
33 96 4
33 97 1
33 98 1
33 99 2
33 100 5
34 35 1
34 36 4
34 37 4
34 38 5
34 39 5
34 40 4
34 41 5
34 42 4
34 43 5
34 44 4
34 45 4
34 46 2
34 47 1
34 48 1
34 49 5
34 50 2
34 51 4
34 52 2
34 53 2
34 54 5
34 55 2
34 56 3
34 57 4
34 58 2
34 59 2
34 60 3
34 61 3
34 62 5
34 63 2
34 64 1
34 65 5
34 66 2
34 67 1
34 68 5
34 69 3
34 70 4
34 71 1
34 72 4
34 73 4
34 74 1
34 75 3
34 76 4
34 77 5
34 78 4
34 79 3
34 80 1
34 81 4
34 82 4
34 83 3
34 84 1
34 85 3
34 86 1
34 87 3
34 88 3
34 89 5
34 90 5
34 91 2
34 92 2
34 93 5
34 94 4
34 95 5
34 96 5
34 97 2
34 98 5
34 99 4
34 100 4
35 36 2
35 37 5
35 38 5
35 39 2
35 40 5
35 41 3
35 42 4
35 43 4
35 44 2
35 45 1
35 46 5
35 47 4
35 48 3
35 49 1
35 50 1
35 51 4
35 52 1
35 53 1
35 54 4
35 55 2
35 56 4
35 57 3
35 58 1
35 59 1
35 60 3
35 61 5
35 62 5
35 63 3
35 64 3
35 65 1
35 66 1
35 67 2
35 68 1
35 69 2
35 70 5
35 71 5
35 72 1
35 73 2
35 74 1
35 75 5
35 76 5
35 77 3
35 78 5
35 79 1
35 80 3
35 81 4
35 82 4
35 83 5
35 84 1
35 85 4
35 86 4
35 87 2
35 88 4
35 89 4
35 90 2
35 91 2
35 92 2
35 93 3
35 94 1
35 95 4
35 96 5
35 97 4
35 98 5
35 99 1
35 100 5
36 37 3
36 38 5
36 39 3
36 40 2
36 41 1
36 42 5
36 43 4
36 44 3
36 45 3
36 46 4
36 47 4
36 48 4
36 49 5
36 50 3
36 51 5
36 52 3
36 53 1
36 54 4
36 55 3
36 56 1
36 57 2
36 58 5
36 59 3
36 60 2
36 61 4
36 62 2
36 63 4
36 64 5
36 65 3
36 66 2
36 67 4
36 68 1
36 69 5
36 70 2
36 71 2
36 72 1
36 73 5
36 74 2
36 75 2
36 76 2
36 77 1
36 78 4
36 79 1
36 80 3
36 81 5
36 82 4
36 83 1
36 84 4
36 85 5
36 86 1
36 87 2
36 88 5
36 89 1
36 90 4
36 91 5
36 92 1
36 93 1
36 94 1
36 95 2
36 96 5
36 97 3
36 98 1
36 99 1
36 100 2
37 38 3
37 39 2
37 40 4
37 41 4
37 42 3
37 43 3
37 44 4
37 45 3
37 46 2
37 47 1
37 48 2
37 49 3
37 50 3
37 51 3
37 52 1
37 53 3
37 54 4
37 55 1
37 56 2
37 57 5
37 58 2
37 59 2
37 60 4
37 61 3
37 62 5
37 63 1
37 64 5
37 65 4
37 66 3
37 67 1
37 68 3
37 69 5
37 70 4
37 71 3
37 72 1
37 73 3
37 74 4
37 75 2
37 76 3
37 77 5
37 78 2
37 79 3
37 80 3
37 81 1
37 82 5
37 83 3
37 84 5
37 85 4
37 86 2
37 87 1
37 88 2
37 89 3
37 90 2
37 91 2
37 92 3
37 93 2
37 94 1
37 95 1
37 96 1
37 97 1
37 98 3
37 99 5
37 100 5
38 39 3
38 40 1
38 41 1
38 42 2
38 43 1
38 44 4
38 45 3
38 46 4
38 47 5
38 48 5
38 49 1
38 50 1
38 51 5
38 52 1
38 53 2
38 54 3
38 55 3
38 56 1
38 57 5
38 58 1
38 59 4
38 60 3
38 61 3
38 62 5
38 63 3
38 64 2
38 65 5
38 66 4
38 67 5
38 68 1
38 69 3
38 70 4
38 71 2
38 72 5
38 73 5
38 74 3
38 75 4
38 76 3
38 77 2
38 78 5
38 79 2
38 80 3
38 81 5
38 82 4
38 83 3
38 84 2
38 85 5
38 86 4
38 87 3
38 88 3
38 89 4
38 90 4
38 91 1
38 92 2
38 93 2
38 94 5
38 95 3
38 96 5
38 97 2
38 98 1
38 99 1
38 100 2
39 40 4
39 41 3
39 42 2
39 43 1
39 44 4
39 45 3
39 46 5
39 47 5
39 48 1
39 49 1
39 50 4
39 51 2
39 52 1
39 53 3
39 54 1
39 55 4
39 56 2
39 57 1
39 58 5
39 59 5
39 60 1
39 61 5
39 62 4
39 63 5
39 64 4
39 65 3
39 66 5
39 67 1
39 68 2
39 69 1
39 70 1
39 71 3
39 72 5
39 73 5
39 74 5
39 75 4
39 76 2
39 77 2
39 78 5
39 79 4
39 80 1
39 81 2
39 82 1
39 83 3
39 84 2
39 85 3
39 86 1
39 87 5
39 88 2
39 89 1
39 90 4
39 91 3
39 92 3
39 93 4
39 94 5
39 95 1
39 96 2
39 97 5
39 98 4
39 99 5
39 100 2
40 41 2
40 42 2
40 43 5
40 44 5
40 45 4
40 46 1
40 47 5
40 48 5
40 49 2
40 50 2
40 51 2
40 52 4
40 53 3
40 54 4
40 55 3
40 56 4
40 57 1
40 58 2
40 59 3
40 60 3
40 61 3
40 62 5
40 63 5
40 64 3
40 65 5
40 66 2
40 67 2
40 68 3
40 69 2
40 70 1
40 71 3
40 72 1
40 73 3
40 74 4
40 75 1
40 76 5
40 77 2
40 78 2
40 79 5
40 80 2
40 81 2
40 82 2
40 83 5
40 84 4
40 85 5
40 86 2
40 87 5
40 88 1
40 89 2
40 90 3
40 91 3
40 92 2
40 93 2
40 94 2
40 95 1
40 96 5
40 97 1
40 98 3
40 99 4
40 100 4
41 42 3
41 43 4
41 44 2
41 45 1
41 46 2
41 47 4
41 48 1
41 49 5
41 50 4
41 51 4
41 52 5
41 53 4
41 54 5
41 55 2
41 56 1
41 57 2
41 58 2
41 59 5
41 60 2
41 61 2
41 62 2
41 63 3
41 64 5
41 65 4
41 66 4
41 67 4
41 68 2
41 69 3
41 70 3
41 71 3
41 72 1
41 73 2
41 74 2
41 75 4
41 76 2
41 77 3
41 78 1
41 79 1
41 80 2
41 81 4
41 82 1
41 83 4
41 84 4
41 85 4
41 86 4
41 87 4
41 88 5
41 89 5
41 90 4
41 91 4
41 92 5
41 93 5
41 94 3
41 95 1
41 96 4
41 97 5
41 98 1
41 99 2
41 100 4
42 43 2
42 44 2
42 45 2
42 46 4
42 47 5
42 48 3
42 49 3
42 50 5
42 51 3
42 52 2
42 53 5
42 54 2
42 55 5
42 56 2
42 57 3
42 58 1
42 59 2
42 60 2
42 61 4
42 62 4
42 63 4
42 64 2
42 65 1
42 66 3
42 67 3
42 68 3
42 69 5
42 70 1
42 71 3
42 72 2
42 73 4
42 74 2
42 75 5
42 76 1
42 77 2
42 78 4
42 79 4
42 80 1
42 81 3
42 82 1
42 83 4
42 84 5
42 85 2
42 86 2
42 87 2
42 88 1
42 89 3
42 90 2
42 91 3
42 92 3
42 93 1
42 94 3
42 95 2
42 96 3
42 97 2
42 98 1
42 99 4
42 100 5
43 44 3
43 45 4
43 46 1
43 47 2
43 48 4
43 49 4
43 50 3
43 51 1
43 52 5
43 53 5
43 54 3
43 55 2
43 56 3
43 57 3
43 58 3
43 59 3
43 60 1
43 61 2
43 62 3
43 63 1
43 64 3
43 65 1
43 66 1
43 67 4
43 68 1
43 69 4
43 70 1
43 71 2
43 72 3
43 73 3
43 74 4
43 75 2
43 76 4
43 77 2
43 78 1
43 79 1
43 80 3
43 81 2
43 82 3
43 83 2
43 84 3
43 85 1
43 86 4
43 87 2
43 88 1
43 89 4
43 90 5
43 91 3
43 92 4
43 93 3
43 94 2
43 95 1
43 96 3
43 97 2
43 98 4
43 99 4
43 100 5
44 45 1
44 46 1
44 47 1
44 48 5
44 49 2
44 50 4
44 51 4
44 52 5
44 53 2
44 54 5
44 55 5
44 56 5
44 57 4
44 58 2
44 59 1
44 60 3
44 61 1
44 62 2
44 63 4
44 64 5
44 65 4
44 66 1
44 67 3
44 68 2
44 69 3
44 70 4
44 71 5
44 72 4
44 73 5
44 74 5
44 75 2
44 76 3
44 77 3
44 78 4
44 79 4
44 80 2
44 81 1
44 82 3
44 83 4
44 84 4
44 85 3
44 86 4
44 87 5
44 88 4
44 89 3
44 90 2
44 91 4
44 92 5
44 93 5
44 94 5
44 95 4
44 96 1
44 97 2
44 98 4
44 99 4
44 100 4
45 46 3
45 47 1
45 48 5
45 49 4
45 50 3
45 51 4
45 52 3
45 53 3
45 54 2
45 55 1
45 56 1
45 57 2
45 58 3
45 59 1
45 60 5
45 61 1
45 62 2
45 63 2
45 64 2
45 65 4
45 66 5
45 67 5
45 68 5
45 69 2
45 70 2
45 71 3
45 72 3
45 73 3
45 74 3
45 75 4
45 76 5
45 77 4
45 78 5
45 79 5
45 80 4
45 81 4
45 82 1
45 83 3
45 84 2
45 85 2
45 86 2
45 87 2
45 88 1
45 89 1
45 90 1
45 91 1
45 92 3
45 93 5
45 94 4
45 95 1
45 96 2
45 97 4
45 98 1
45 99 5
45 100 5
46 47 3
46 48 5
46 49 5
46 50 2
46 51 2
46 52 4
46 53 1
46 54 3
46 55 5
46 56 5
46 57 2
46 58 1
46 59 1
46 60 4
46 61 1
46 62 1
46 63 1
46 64 1
46 65 2
46 66 1
46 67 3
46 68 3
46 69 3
46 70 5
46 71 2
46 72 1
46 73 1
46 74 1
46 75 3
46 76 3
46 77 3
46 78 3
46 79 2
46 80 1
46 81 5
46 82 3
46 83 2
46 84 1
46 85 2
46 86 2
46 87 1
46 88 5
46 89 1
46 90 5
46 91 2
46 92 5
46 93 4
46 94 1
46 95 1
46 96 4
46 97 5
46 98 4
46 99 2
46 100 2
47 48 3
47 49 4
47 50 1
47 51 3
47 52 4
47 53 5
47 54 4
47 55 3
47 56 4
47 57 3
47 58 5
47 59 1
47 60 1
47 61 3
47 62 1
47 63 5
47 64 1
47 65 2
47 66 1
47 67 3
47 68 4
47 69 3
47 70 3
47 71 4
47 72 1
47 73 1
47 74 3
47 75 1
47 76 1
47 77 5
47 78 1
47 79 5
47 80 5
47 81 2
47 82 3
47 83 1
47 84 5
47 85 1
47 86 5
47 87 3
47 88 3
47 89 4
47 90 2
47 91 1
47 92 2
47 93 5
47 94 5
47 95 2
47 96 3
47 97 4
47 98 3
47 99 1
47 100 2
48 49 4
48 50 5
48 51 3
48 52 2
48 53 1
48 54 3
48 55 3
48 56 5
48 57 2
48 58 1
48 59 5
48 60 3
48 61 4
48 62 2
48 63 2
48 64 1
48 65 3
48 66 2
48 67 2
48 68 4
48 69 4
48 70 2
48 71 2
48 72 3
48 73 3
48 74 1
48 75 1
48 76 2
48 77 5
48 78 5
48 79 1
48 80 5
48 81 5
48 82 5
48 83 3
48 84 3
48 85 4
48 86 5
48 87 3
48 88 5
48 89 2
48 90 2
48 91 3
48 92 4
48 93 4
48 94 5
48 95 2
48 96 4
48 97 2
48 98 3
48 99 4
48 100 1
49 50 3
49 51 3
49 52 3
49 53 4
49 54 4
49 55 3
49 56 4
49 57 1
49 58 1
49 59 5
49 60 3
49 61 2
49 62 2
49 63 3
49 64 2
49 65 1
49 66 4
49 67 4
49 68 5
49 69 3
49 70 1
49 71 4
49 72 1
49 73 1
49 74 2
49 75 4
49 76 5
49 77 2
49 78 2
49 79 3
49 80 2
49 81 2
49 82 3
49 83 1
49 84 5
49 85 3
49 86 2
49 87 3
49 88 5
49 89 3
49 90 2
49 91 4
49 92 5
49 93 2
49 94 4
49 95 1
49 96 4
49 97 3
49 98 4
49 99 5
49 100 2
50 51 5
50 52 5
50 53 3
50 54 2
50 55 3
50 56 5
50 57 5
50 58 4
50 59 5
50 60 1
50 61 1
50 62 5
50 63 2
50 64 3
50 65 5
50 66 1
50 67 1
50 68 5
50 69 4
50 70 2
50 71 5
50 72 2
50 73 5
50 74 5
50 75 5
50 76 5
50 77 5
50 78 3
50 79 1
50 80 2
50 81 2
50 82 5
50 83 3
50 84 1
50 85 3
50 86 5
50 87 2
50 88 1
50 89 2
50 90 3
50 91 5
50 92 1
50 93 3
50 94 1
50 95 2
50 96 3
50 97 4
50 98 5
50 99 4
50 100 4
51 52 1
51 53 3
51 54 5
51 55 4
51 56 1
51 57 1
51 58 1
51 59 3
51 60 4
51 61 5
51 62 4
51 63 1
51 64 2
51 65 2
51 66 4
51 67 2
51 68 5
51 69 1
51 70 3
51 71 4
51 72 5
51 73 4
51 74 2
51 75 4
51 76 1
51 77 1
51 78 5
51 79 3
51 80 3
51 81 1
51 82 2
51 83 3
51 84 2
51 85 3
51 86 3
51 87 5
51 88 3
51 89 2
51 90 3
51 91 5
51 92 5
51 93 3
51 94 1
51 95 2
51 96 5
51 97 1
51 98 1
51 99 4
51 100 4
52 53 3
52 54 2
52 55 5
52 56 1
52 57 1
52 58 5
52 59 2
52 60 3
52 61 1
52 62 1
52 63 2
52 64 4
52 65 5
52 66 2
52 67 4
52 68 5
52 69 4
52 70 1
52 71 5
52 72 5
52 73 5
52 74 1
52 75 2
52 76 5
52 77 2
52 78 3
52 79 5
52 80 2
52 81 4
52 82 5
52 83 1
52 84 4
52 85 4
52 86 1
52 87 5
52 88 1
52 89 2
52 90 5
52 91 1
52 92 2
52 93 1
52 94 1
52 95 3
52 96 2
52 97 2
52 98 4
52 99 2
52 100 4
53 54 4
53 55 3
53 56 4
53 57 3
53 58 2
53 59 1
53 60 3
53 61 4
53 62 4
53 63 3
53 64 4
53 65 5
53 66 4
53 67 5
53 68 4
53 69 5
53 70 3
53 71 5
53 72 2
53 73 3
53 74 4
53 75 2
53 76 5
53 77 1
53 78 4
53 79 5
53 80 1
53 81 5
53 82 1
53 83 4
53 84 4
53 85 3
53 86 3
53 87 4
53 88 3
53 89 3
53 90 3
53 91 5
53 92 1
53 93 2
53 94 1
53 95 3
53 96 2
53 97 2
53 98 4
53 99 2
53 100 5
54 55 4
54 56 4
54 57 3
54 58 3
54 59 1
54 60 2
54 61 5
54 62 2
54 63 1
54 64 2
54 65 2
54 66 3
54 67 4
54 68 2
54 69 1
54 70 1
54 71 4
54 72 2
54 73 5
54 74 2
54 75 2
54 76 5
54 77 1
54 78 3
54 79 1
54 80 3
54 81 2
54 82 2
54 83 2
54 84 2
54 85 5
54 86 1
54 87 1
54 88 3
54 89 4
54 90 3
54 91 2
54 92 5
54 93 4
54 94 5
54 95 1
54 96 4
54 97 5
54 98 3
54 99 4
54 100 3
55 56 3
55 57 5
55 58 5
55 59 3
55 60 2
55 61 1
55 62 5
55 63 3
55 64 4
55 65 4
55 66 3
55 67 5
55 68 1
55 69 5
55 70 5
55 71 3
55 72 4
55 73 4
55 74 1
55 75 3
55 76 3
55 77 5
55 78 5
55 79 1
55 80 1
55 81 3
55 82 3
55 83 3
55 84 4
55 85 4
55 86 2
55 87 5
55 88 2
55 89 5
55 90 1
55 91 5
55 92 4
55 93 5
55 94 4
55 95 3
55 96 5
55 97 5
55 98 3
55 99 3
55 100 3
56 57 4
56 58 1
56 59 3
56 60 1
56 61 4
56 62 5
56 63 4
56 64 2
56 65 5
56 66 2
56 67 2
56 68 4
56 69 5
56 70 4
56 71 3
56 72 5
56 73 1
56 74 1
56 75 1
56 76 4
56 77 1
56 78 5
56 79 2
56 80 4
56 81 2
56 82 1
56 83 2
56 84 5
56 85 4
56 86 2
56 87 1
56 88 5
56 89 1
56 90 2
56 91 4
56 92 4
56 93 2
56 94 4
56 95 5
56 96 1
56 97 3
56 98 5
56 99 2
56 100 2
57 58 4
57 59 4
57 60 5
57 61 2
57 62 4
57 63 1
57 64 4
57 65 4
57 66 3
57 67 4
57 68 5
57 69 3
57 70 5
57 71 4
57 72 4
57 73 2
57 74 2
57 75 1
57 76 5
57 77 5
57 78 1
57 79 1
57 80 1
57 81 2
57 82 3
57 83 3
57 84 4
57 85 5
57 86 4
57 87 1
57 88 3
57 89 3
57 90 1
57 91 5
57 92 5
57 93 2
57 94 5
57 95 3
57 96 5
57 97 3
57 98 3
57 99 4
57 100 5
58 59 4
58 60 1
58 61 3
58 62 2
58 63 4
58 64 5
58 65 5
58 66 1
58 67 5
58 68 4
58 69 2
58 70 4
58 71 5
58 72 5
58 73 4
58 74 5
58 75 2
58 76 3
58 77 1
58 78 3
58 79 2
58 80 3
58 81 5
58 82 4
58 83 3
58 84 3
58 85 2
58 86 5
58 87 4
58 88 5
58 89 4
58 90 1
58 91 4
58 92 5
58 93 2
58 94 4
58 95 4
58 96 1
58 97 2
58 98 3
58 99 5
58 100 3
59 60 1
59 61 1
59 62 3
59 63 1
59 64 1
59 65 5
59 66 1
59 67 2
59 68 2
59 69 4
59 70 1
59 71 1
59 72 2
59 73 2
59 74 3
59 75 2
59 76 2
59 77 5
59 78 1
59 79 5
59 80 1
59 81 3
59 82 1
59 83 3
59 84 5
59 85 3
59 86 3
59 87 2
59 88 4
59 89 5
59 90 5
59 91 3
59 92 5
59 93 1
59 94 3
59 95 2
59 96 3
59 97 4
59 98 2
59 99 1
59 100 5
60 61 4
60 62 3
60 63 4
60 64 5
60 65 5
60 66 2
60 67 3
60 68 5
60 69 5
60 70 1
60 71 3
60 72 4
60 73 5
60 74 1
60 75 5
60 76 5
60 77 1
60 78 3
60 79 3
60 80 1
60 81 1
60 82 4
60 83 5
60 84 2
60 85 2
60 86 3
60 87 5
60 88 5
60 89 5
60 90 5
60 91 5
60 92 1
60 93 1
60 94 4
60 95 1
60 96 1
60 97 1
60 98 5
60 99 5
60 100 5
61 62 1
61 63 2
61 64 3
61 65 5
61 66 4
61 67 3
61 68 1
61 69 3
61 70 5
61 71 1
61 72 3
61 73 1
61 74 2
61 75 5
61 76 5
61 77 1
61 78 2
61 79 4
61 80 5
61 81 2
61 82 4
61 83 4
61 84 4
61 85 3
61 86 2
61 87 5
61 88 2
61 89 3
61 90 1
61 91 2
61 92 1
61 93 5
61 94 5
61 95 2
61 96 5
61 97 5
61 98 3
61 99 5
61 100 4
62 63 4
62 64 5
62 65 1
62 66 5
62 67 3
62 68 4
62 69 5
62 70 2
62 71 3
62 72 4
62 73 5
62 74 5
62 75 2
62 76 3
62 77 3
62 78 5
62 79 2
62 80 3
62 81 2
62 82 1
62 83 3
62 84 2
62 85 3
62 86 2
62 87 1
62 88 2
62 89 5
62 90 3
62 91 2
62 92 2
62 93 5
62 94 5
62 95 3
62 96 1
62 97 2
62 98 2
62 99 5
62 100 4
63 64 5
63 65 3
63 66 5
63 67 5
63 68 2
63 69 3
63 70 2
63 71 3
63 72 3
63 73 5
63 74 2
63 75 2
63 76 5
63 77 1
63 78 2
63 79 5
63 80 2
63 81 4
63 82 1
63 83 4
63 84 1
63 85 1
63 86 3
63 87 5
63 88 3
63 89 3
63 90 5
63 91 3
63 92 2
63 93 4
63 94 5
63 95 5
63 96 5
63 97 1
63 98 4
63 99 1
63 100 3
64 65 2
64 66 4
64 67 5
64 68 2
64 69 3
64 70 1
64 71 1
64 72 3
64 73 2
64 74 3
64 75 2
64 76 4
64 77 1
64 78 2
64 79 1
64 80 4
64 81 4
64 82 2
64 83 2
64 84 5
64 85 5
64 86 3
64 87 4
64 88 1
64 89 5
64 90 3
64 91 2
64 92 3
64 93 5
64 94 4
64 95 5
64 96 2
64 97 2
64 98 5
64 99 1
64 100 2
65 66 4
65 67 4
65 68 2
65 69 5
65 70 2
65 71 3
65 72 5
65 73 5
65 74 2
65 75 1
65 76 5
65 77 3
65 78 4
65 79 5
65 80 1
65 81 5
65 82 2
65 83 2
65 84 2
65 85 1
65 86 5
65 87 4
65 88 4
65 89 4
65 90 2
65 91 4
65 92 1
65 93 3
65 94 1
65 95 3
65 96 5
65 97 4
65 98 4
65 99 2
65 100 3
66 67 3
66 68 2
66 69 5
66 70 2
66 71 1
66 72 3
66 73 5
66 74 2
66 75 2
66 76 1
66 77 4
66 78 5
66 79 1
66 80 4
66 81 5
66 82 1
66 83 1
66 84 5
66 85 1
66 86 3
66 87 5
66 88 3
66 89 3
66 90 4
66 91 1
66 92 1
66 93 5
66 94 2
66 95 5
66 96 3
66 97 5
66 98 5
66 99 5
66 100 2
67 68 5
67 69 5
67 70 3
67 71 2
67 72 3
67 73 5
67 74 2
67 75 5
67 76 3
67 77 1
67 78 3
67 79 2
67 80 1
67 81 4
67 82 3
67 83 3
67 84 2
67 85 1
67 86 1
67 87 3
67 88 1
67 89 1
67 90 1
67 91 1
67 92 3
67 93 5
67 94 2
67 95 5
67 96 4
67 97 3
67 98 4
67 99 5
67 100 1
68 69 4
68 70 3
68 71 2
68 72 2
68 73 5
68 74 1
68 75 3
68 76 4
68 77 2
68 78 5
68 79 5
68 80 3
68 81 1
68 82 4
68 83 1
68 84 1
68 85 3
68 86 2
68 87 1
68 88 5
68 89 4
68 90 4
68 91 5
68 92 3
68 93 1
68 94 3
68 95 2
68 96 1
68 97 2
68 98 1
68 99 1
68 100 1
69 70 1
69 71 3
69 72 1
69 73 5
69 74 1
69 75 5
69 76 4
69 77 4
69 78 3
69 79 3
69 80 1
69 81 5
69 82 5
69 83 2
69 84 4
69 85 1
69 86 5
69 87 1
69 88 4
69 89 3
69 90 2
69 91 5
69 92 1
69 93 5
69 94 5
69 95 5
69 96 3
69 97 5
69 98 4
69 99 5
69 100 2
70 71 3
70 72 4
70 73 3
70 74 1
70 75 3
70 76 1
70 77 1
70 78 3
70 79 1
70 80 3
70 81 5
70 82 3
70 83 1
70 84 1
70 85 1
70 86 3
70 87 1
70 88 5
70 89 5
70 90 5
70 91 4
70 92 2
70 93 4
70 94 3
70 95 3
70 96 1
70 97 1
70 98 5
70 99 1
70 100 2
71 72 5
71 73 5
71 74 3
71 75 2
71 76 4
71 77 2
71 78 2
71 79 2
71 80 4
71 81 3
71 82 2
71 83 4
71 84 2
71 85 4
71 86 4
71 87 4
71 88 4
71 89 1
71 90 2
71 91 4
71 92 1
71 93 1
71 94 2
71 95 1
71 96 1
71 97 5
71 98 1
71 99 3
71 100 3
72 73 4
72 74 4
72 75 2
72 76 1
72 77 3
72 78 2
72 79 3
72 80 3
72 81 4
72 82 4
72 83 1
72 84 2
72 85 3
72 86 2
72 87 1
72 88 5
72 89 3
72 90 2
72 91 1
72 92 2
72 93 3
72 94 5
72 95 1
72 96 1
72 97 2
72 98 2
72 99 5
72 100 3
73 74 3
73 75 5
73 76 4
73 77 3
73 78 2
73 79 3
73 80 1
73 81 5
73 82 5
73 83 3
73 84 5
73 85 2
73 86 3
73 87 1
73 88 2
73 89 5
73 90 5
73 91 2
73 92 1
73 93 5
73 94 2
73 95 2
73 96 2
73 97 5
73 98 1
73 99 5
73 100 1
74 75 1
74 76 5
74 77 2
74 78 5
74 79 1
74 80 5
74 81 2
74 82 1
74 83 3
74 84 2
74 85 5
74 86 1
74 87 2
74 88 3
74 89 4
74 90 3
74 91 1
74 92 3
74 93 1
74 94 3
74 95 1
74 96 4
74 97 3
74 98 1
74 99 5
74 100 1
75 76 3
75 77 1
75 78 5
75 79 2
75 80 2
75 81 4
75 82 3
75 83 4
75 84 4
75 85 3
75 86 5
75 87 4
75 88 3
75 89 2
75 90 2
75 91 3
75 92 1
75 93 5
75 94 2
75 95 3
75 96 1
75 97 3
75 98 2
75 99 3
75 100 3
76 77 4
76 78 2
76 79 4
76 80 1
76 81 2
76 82 5
76 83 2
76 84 3
76 85 5
76 86 1
76 87 1
76 88 2
76 89 2
76 90 3
76 91 4
76 92 2
76 93 2
76 94 1
76 95 1
76 96 4
76 97 5
76 98 3
76 99 1
76 100 4
77 78 3
77 79 2
77 80 2
77 81 1
77 82 3
77 83 3
77 84 1
77 85 2
77 86 2
77 87 3
77 88 4
77 89 4
77 90 1
77 91 2
77 92 5
77 93 4
77 94 2
77 95 3
77 96 5
77 97 5
77 98 1
77 99 4
77 100 2
78 79 2
78 80 2
78 81 5
78 82 1
78 83 1
78 84 2
78 85 5
78 86 5
78 87 3
78 88 3
78 89 2
78 90 3
78 91 2
78 92 1
78 93 5
78 94 5
78 95 1
78 96 3
78 97 3
78 98 4
78 99 3
78 100 3
79 80 3
79 81 4
79 82 2
79 83 1
79 84 4
79 85 2
79 86 5
79 87 3
79 88 4
79 89 4
79 90 3
79 91 4
79 92 1
79 93 5
79 94 4
79 95 1
79 96 4
79 97 2
79 98 4
79 99 5
79 100 3
80 81 2
80 82 1
80 83 1
80 84 1
80 85 4
80 86 3
80 87 3
80 88 5
80 89 3
80 90 2
80 91 5
80 92 3
80 93 4
80 94 4
80 95 2
80 96 4
80 97 2
80 98 1
80 99 1
80 100 1
81 82 2
81 83 4
81 84 3
81 85 5
81 86 4
81 87 1
81 88 3
81 89 4
81 90 3
81 91 4
81 92 1
81 93 2
81 94 5
81 95 2
81 96 2
81 97 5
81 98 1
81 99 5
81 100 5
82 83 2
82 84 4
82 85 3
82 86 3
82 87 1
82 88 5
82 89 4
82 90 4
82 91 1
82 92 3
82 93 4
82 94 1
82 95 1
82 96 2
82 97 5
82 98 1
82 99 1
82 100 5
83 84 3
83 85 2
83 86 3
83 87 1
83 88 3
83 89 4
83 90 1
83 91 1
83 92 2
83 93 4
83 94 4
83 95 2
83 96 1
83 97 5
83 98 2
83 99 1
83 100 4
84 85 5
84 86 1
84 87 4
84 88 3
84 89 4
84 90 1
84 91 1
84 92 1
84 93 5
84 94 1
84 95 3
84 96 5
84 97 1
84 98 1
84 99 4
84 100 5
85 86 1
85 87 3
85 88 2
85 89 5
85 90 1
85 91 3
85 92 1
85 93 5
85 94 3
85 95 1
85 96 4
85 97 2
85 98 5
85 99 2
85 100 3
86 87 2
86 88 2
86 89 2
86 90 4
86 91 5
86 92 3
86 93 1
86 94 1
86 95 3
86 96 3
86 97 2
86 98 5
86 99 3
86 100 4
87 88 1
87 89 1
87 90 2
87 91 4
87 92 2
87 93 5
87 94 1
87 95 2
87 96 3
87 97 2
87 98 5
87 99 1
87 100 1
88 89 2
88 90 5
88 91 1
88 92 5
88 93 2
88 94 1
88 95 5
88 96 3
88 97 1
88 98 5
88 99 4
88 100 1
89 90 1
89 91 3
89 92 3
89 93 2
89 94 4
89 95 1
89 96 1
89 97 3
89 98 5
89 99 5
89 100 1
90 91 3
90 92 5
90 93 2
90 94 2
90 95 1
90 96 2
90 97 4
90 98 4
90 99 3
90 100 1
91 92 5
91 93 2
91 94 2
91 95 3
91 96 4
91 97 5
91 98 2
91 99 1
91 100 2
92 93 2
92 94 1
92 95 5
92 96 5
92 97 5
92 98 2
92 99 2
92 100 2
93 94 2
93 95 3
93 96 5
93 97 2
93 98 5
93 99 1
93 100 3
94 95 5
94 96 3
94 97 5
94 98 4
94 99 3
94 100 5
95 96 3
95 97 5
95 98 5
95 99 2
95 100 2
96 97 4
96 98 5
96 99 5
96 100 4
97 98 4
97 99 3
97 100 2
98 99 2
98 100 3
99 100 3
